Maximize
obj: 8 x0 + 0 x1 + 6 x2 + 7 x3 + 7 x4 + 9 x5 + 7 x6 + 2 x7 + 8 x8 + 8 x9 + 6 x10 + 0 x11 + 0 x12 + 9 x13 + 6 x14 
Subject To
15 x0 + 24 x1 + 379 x2 + 385 x3 + 386 x4  <= 390
359 x0 + 602 x1 + 282 x2 + 519 x3 + 198 x4  <= 716
18 x5 + 34 x6 + 611 x7 + 612 x8 + 610 x9  <= 615
224 x5 + 377 x6 + 246 x7 + 135 x8 + 312 x9  <= 446
22 x10 + 36 x11 + 568 x12 + 42 x13 + 154 x14  <= 569
315 x10 + 314 x11 + 18 x12 + 315 x13 + 314 x14  <= 628
Binaries
x0
x1
x2
x3
x4
x5
x6
x7
x8
x9
x10
x11
x12
x13
x14
End

